
   AbsCon 1.41 (January, 2014) - defaultConfiguration

   
   instance
        framework=CSP  name=Isomorphism-/cluster/gpg/ciaran/sip-benchmarks/benchmarks/LV/g22-/cluster/gpg/ciaran/sip-benchmarks/benchmarks/LV/g25
        parameters=/cluster/gpg/ciaran/sip-benchmarks/benchmarks/LV/g22,/cluster/gpg/ciaran/sip-benchmarks/benchmarks/LV/g25
      

   loading variables...
        nbVariables=67  nbDomainTypes=1  nbTotalValues=5025  domainSizes=(75:67)
          =>  wckTime=0.198  cpuTime=0.311  mem=9M408

   loading objectives...

   loading constraints...
        nbConstraints=225  nbSpecificConstraints=1  nbExtensionStructures=(1,shared:223)  nbConflictsStructures=(1,shared:223,unbuilt:1)
        degrees=(3:1)(4:4)(5:8)...(10:9)(11:8)(12:2)  arities=(2:224)(67:1)  types=(AllDifferent:1)(ConstraintHardExtensionV-Bits:224)
          =>  wckTime=0.262  cpuTime=0.366  mem=5M402

   INFO : <!-- Start saving the XML representation -->

   INFO : <!-- Stop saving the XML representation of g25.xml -->

   Solver SolverBacktrack being built... 
          =>  wckTime=0.441  cpuTime=0.513  mem=18M619

   
   search
        run=0  nbConstraintChecks=0  depth=(min:0,max:0,avg:1)  nbEffectivePropagations=36  nbRevisions=96  nbUselessRevisions=61
        nbAssignments=1  nbFailedAssignments=1  nbBacktracks=1  nbVisitedNodes=3  nbRestartNogoods=0
          =>  wckTime=0.027  cpuTime=0.538  mem=18M810

   
   global
        nbConstraintChecks=0  nbEffectivePropagations=36  nbRevisions=96  nbUselessRevisions=61  nbRestartNogoods=0  solvingWckTime=0.028
        expiredTime=no  totalExploration=yes  nbFoundSolutions=0  Stop=FULL_EXPLORATION
          =>  wckTime=0.469  cpuTime=0.538  mem=18M810

s UNSATISFIABLE
d NODES 1

   totalWckTime=0.365  totalCpuTime=0.539
